p edge 69 672
e 1 2
e 1 3
e 1 4
e 1 5
e 1 6
e 1 7
e 1 8
e 1 9
e 1 10
e 1 11
e 1 12
e 1 13
e 1 14
e 1 15
e 1 16
e 1 17
e 1 18
e 1 19
e 1 20
e 1 21
e 1 22
e 1 23
e 1 24
e 1 25
e 1 26
e 1 27
e 1 28
e 1 29
e 1 30
e 1 31
e 1 32
e 1 33
e 1 34
e 1 35
e 1 36
e 1 37
e 1 38
e 1 39
e 1 40
e 1 41
e 1 42
e 1 43
e 1 44
e 1 45
e 1 46
e 1 47
e 1 48
e 1 49
e 1 50
e 1 51
e 1 52
e 1 53
e 1 54
e 1 55
e 1 56
e 1 57
e 1 58
e 1 59
e 1 60
e 1 61
e 1 62
e 1 63
e 1 64
e 1 65
e 1 66
e 1 67
e 1 68
e 1 69
e 2 3
e 2 4
e 2 5
e 2 6
e 2 7
e 2 8
e 2 9
e 2 11
e 2 12
e 2 13
e 2 14
e 2 15
e 2 16
e 2 17
e 2 18
e 2 19
e 2 20
e 2 21
e 2 22
e 2 24
e 2 25
e 2 26
e 2 27
e 2 28
e 2 29
e 2 30
e 2 31
e 2 32
e 2 33
e 2 34
e 2 35
e 2 36
e 2 37
e 2 38
e 2 39
e 2 40
e 2 41
e 2 42
e 2 43
e 2 44
e 2 45
e 2 46
e 2 47
e 2 48
e 2 49
e 2 50
e 2 51
e 2 52
e 2 53
e 2 54
e 2 55
e 2 56
e 2 57
e 2 58
e 2 59
e 2 60
e 2 61
e 2 62
e 2 63
e 2 64
e 2 65
e 2 66
e 2 67
e 2 68
e 3 4
e 3 5
e 3 6
e 3 7
e 3 8
e 3 9
e 3 11
e 3 12
e 3 13
e 3 14
e 3 15
e 3 16
e 3 17
e 3 18
e 3 19
e 3 20
e 3 21
e 3 22
e 3 24
e 3 25
e 3 26
e 3 27
e 3 28
e 3 29
e 3 30
e 3 31
e 3 32
e 3 33
e 3 34
e 3 35
e 3 36
e 3 37
e 3 38
e 3 39
e 3 40
e 3 41
e 3 42
e 3 43
e 3 44
e 3 45
e 3 46
e 3 47
e 3 48
e 3 49
e 3 50
e 3 51
e 3 52
e 3 53
e 3 54
e 3 55
e 3 56
e 3 57
e 3 58
e 3 59
e 3 60
e 3 61
e 3 62
e 3 63
e 3 64
e 3 65
e 3 66
e 3 67
e 3 68
e 4 5
e 4 6
e 4 7
e 4 8
e 4 9
e 4 10
e 4 24
e 4 25
e 4 26
e 4 27
e 4 28
e 4 29
e 4 37
e 4 39
e 4 40
e 4 41
e 4 42
e 4 43
e 4 44
e 4 45
e 5 24
e 5 26
e 5 27
e 5 28
e 5 29
e 5 39
e 5 40
e 5 41
e 6 26
e 6 28
e 6 29
e 6 41
e 6 42
e 6 43
e 6 44
e 7 8
e 7 9
e 7 28
e 7 29
e 7 41
e 7 44
e 7 45
e 8 9
e 8 28
e 8 29
e 8 41
e 8 44
e 8 45
e 9 28
e 9 29
e 9 41
e 9 44
e 9 45
e 11 18
e 11 24
e 11 26
e 11 28
e 11 29
e 11 30
e 11 38
e 11 46
e 11 59
e 11 69
e 12 13
e 12 24
e 12 26
e 12 28
e 12 29
e 12 31
e 12 32
e 12 33
e 12 46
e 12 47
e 12 48
e 12 49
e 12 50
e 12 51
e 13 24
e 13 26
e 13 28
e 13 29
e 13 31
e 13 32
e 13 33
e 13 46
e 13 47
e 13 48
e 13 49
e 13 50
e 13 51
e 14 15
e 14 16
e 14 17
e 14 24
e 14 26
e 14 28
e 14 29
e 14 35
e 14 36
e 14 46
e 14 52
e 14 53
e 14 54
e 14 55
e 14 56
e 14 57
e 14 58
e 15 16
e 15 17
e 15 24
e 15 26
e 15 28
e 15 29
e 15 35
e 15 36
e 15 46
e 15 52
e 15 53
e 15 54
e 15 55
e 15 56
e 15 57
e 15 58
e 16 17
e 16 24
e 16 26
e 16 28
e 16 29
e 16 35
e 16 36
e 16 46
e 16 52
e 16 53
e 16 54
e 16 55
e 16 56
e 16 57
e 16 58
e 17 24
e 17 26
e 17 28
e 17 29
e 17 46
e 17 54
e 17 55
e 17 56
e 17 57
e 17 58
e 18 19
e 18 20
e 18 21
e 18 22
e 18 24
e 18 26
e 18 28
e 18 29
e 18 46
e 18 59
e 18 60
e 18 61
e 18 62
e 18 63
e 18 64
e 18 65
e 18 66
e 18 67
e 18 68
e 19 20
e 19 21
e 19 22
e 19 24
e 19 26
e 19 28
e 19 29
e 19 46
e 19 59
e 19 60
e 19 61
e 19 62
e 19 63
e 19 64
e 19 65
e 19 66
e 19 67
e 19 68
e 20 21
e 20 22
e 20 24
e 20 26
e 20 28
e 20 29
e 20 46
e 20 59
e 20 60
e 20 61
e 20 62
e 20 63
e 20 64
e 20 65
e 20 66
e 20 67
e 20 68
e 21 22
e 21 24
e 21 26
e 21 28
e 21 29
e 21 46
e 21 59
e 21 60
e 21 61
e 21 62
e 21 63
e 21 64
e 21 65
e 21 66
e 21 67
e 21 68
e 22 24
e 22 26
e 22 28
e 22 29
e 22 46
e 22 59
e 22 60
e 22 61
e 22 62
e 22 63
e 22 64
e 22 65
e 22 66
e 22 67
e 22 68
e 24 25
e 24 26
e 24 27
e 24 28
e 24 29
e 24 30
e 24 31
e 24 32
e 24 33
e 24 34
e 24 35
e 24 36
e 24 38
e 24 39
e 24 40
e 24 41
e 24 46
e 24 47
e 24 48
e 24 49
e 24 50
e 24 51
e 24 52
e 24 53
e 24 54
e 24 55
e 24 56
e 24 57
e 24 58
e 24 59
e 24 60
e 24 61
e 24 62
e 24 63
e 24 64
e 24 65
e 24 66
e 24 67
e 24 68
e 25 26
e 25 27
e 25 28
e 25 29
e 25 38
e 25 46
e 26 27
e 26 28
e 26 29
e 26 30
e 26 31
e 26 32
e 26 33
e 26 34
e 26 35
e 26 36
e 26 37
e 26 38
e 26 39
e 26 40
e 26 41
e 26 42
e 26 43
e 26 44
e 26 46
e 26 47
e 26 48
e 26 49
e 26 50
e 26 51
e 26 52
e 26 53
e 26 54
e 26 55
e 26 56
e 26 57
e 26 58
e 26 59
e 26 60
e 26 61
e 26 62
e 26 63
e 26 64
e 26 65
e 26 66
e 26 67
e 26 68
e 27 28
e 27 29
e 27 38
e 27 39
e 27 40
e 27 41
e 27 46
e 28 29
e 28 30
e 28 31
e 28 32
e 28 33
e 28 34
e 28 35
e 28 36
e 28 37
e 28 38
e 28 39
e 28 40
e 28 41
e 28 42
e 28 43
e 28 44
e 28 45
e 28 46
e 28 47
e 28 48
e 28 49
e 28 50
e 28 51
e 28 52
e 28 53
e 28 54
e 28 55
e 28 56
e 28 57
e 28 58
e 28 59
e 28 60
e 28 61
e 28 62
e 28 63
e 28 64
e 28 65
e 28 66
e 28 67
e 28 68
e 29 30
e 29 31
e 29 32
e 29 33
e 29 34
e 29 35
e 29 36
e 29 37
e 29 38
e 29 39
e 29 40
e 29 41
e 29 42
e 29 43
e 29 44
e 29 45
e 29 46
e 29 47
e 29 48
e 29 49
e 29 50
e 29 51
e 29 52
e 29 53
e 29 54
e 29 55
e 29 56
e 29 57
e 29 58
e 29 59
e 29 60
e 29 61
e 29 62
e 29 63
e 29 64
e 29 65
e 29 66
e 29 67
e 29 68
e 30 46
e 31 46
e 31 49
e 31 50
e 31 51
e 32 46
e 33 46
e 34 46
e 35 46
e 36 46
e 37 41
e 37 44
e 38 46
e 39 40
e 39 41
e 40 41
e 41 42
e 41 43
e 41 44
e 41 45
e 42 43
e 42 44
e 43 44
e 44 45
e 46 47
e 46 48
e 46 49
e 46 50
e 46 51
e 46 52
e 46 53
e 46 54
e 46 55
e 46 56
e 46 57
e 46 58
e 46 59
e 46 60
e 46 61
e 46 62
e 46 63
e 46 64
e 46 65
e 46 66
e 46 67
e 46 68
e 47 48
e 49 50
e 49 51
e 50 51
e 52 53
e 54 55
e 54 56
e 54 57
e 54 58
e 55 56
e 57 58
e 59 60
e 59 61
e 59 62
e 59 63
e 59 64
e 59 65
e 59 66
e 59 67
e 59 68
e 60 61
e 62 63
e 62 64
e 62 65
e 63 64
e 63 65
